networks/zoo_112_1848/zoo_112_1848-lower.txt
Number of groups: 56
Flow 1: {1 31 0} {31 13 0} {51 5 0} {5 2 0} {2 58 0} 
Flow 1: {13 51 0} Flow 2: {31 3 0} {3 59 0} 
Flow 3: {33 4 0} {4 60 0} 
Flow 3: {31 33 0} Flow 4: {5 61 0} 
Flow 5: {51 6 0} {6 62 0} 
Flow 6: {51 7 0} {7 63 0} 
Flow 7: {5 8 0} {8 64 0} 
Flow 8: {42 9 0} {9 65 0} 
Flow 8: {13 42 0} Flow 9: {9 10 0} {10 66 0} 
Flow 10: {9 20 0} {20 19 0} {19 11 0} {11 67 0} 
Flow 11: {26 12 0} {12 68 0} 
Flow 11: {13 26 0} Flow 12: {13 69 0} 
Flow 13: {31 14 0} {14 70 0} 
Flow 14: {31 30 0} {30 15 0} {15 71 0} 
Flow 15: {30 16 0} {16 72 0} 
Flow 16: {13 45 0} {45 17 0} {17 73 0} 
Flow 17: {20 18 0} {18 74 0} 
Flow 18: {19 75 0} 
Flow 19: {20 76 0} 
Flow 20: {20 21 0} {21 77 0} 
Flow 21: {20 22 0} {22 78 0} 
Flow 22: {33 24 0} {24 80 0} 
Flow 23: {51 25 0} {25 81 0} 
Flow 24: {26 82 0} 
Flow 25: {26 27 0} {27 83 0} 
Flow 26: {30 28 0} {28 84 0} 
Flow 27: {30 29 0} {29 85 0} 
Flow 28: {30 86 0} 
Flow 29: {31 87 0} 
Flow 30: {14 32 0} {32 88 0} 
Flow 31: {33 89 0} 
Flow 32: {33 34 0} {34 90 0} 
Flow 33: {33 35 0} {35 91 0} 
Flow 34: {33 36 0} {36 92 0} 
Flow 35: {17 37 0} {37 93 0} 
Flow 36: {45 38 0} {38 94 0} 
Flow 37: {17 39 0} {39 95 0} 
Flow 38: {51 40 0} {40 96 0} 
Flow 39: {9 41 0} {41 97 0} 
Flow 40: {42 98 0} 
Flow 41: {45 43 0} {43 99 0} 
Flow 42: {45 44 0} {44 100 0} 
Flow 43: {45 101 0} 
Flow 44: {45 46 0} {46 102 0} 
Flow 45: {33 47 0} {47 103 0} 
Flow 46: {31 48 0} {48 104 0} 
Flow 47: {14 49 0} {49 105 0} 
Flow 48: {36 50 0} {50 106 0} 
Flow 49: {51 107 0} 
Flow 50: {31 52 0} {52 108 0} 
Flow 51: {13 53 0} {53 109 0} 
Flow 52: {51 55 0} {55 111 0} 
Flow 53: {42 56 0} {56 112 0} 
Flow 54: {31 1 0} {1 57 0} 
Flow 54: {2 5 0} {5 51 0} {51 13 0} {13 31 0} Flow 58: {5 9 0} Flow 60: {51 33 0} {33 14 0} Flow 61: {51 17 0} Flow 64: {13 30 0} Flow 71: {9 40 0} Flow 76: {33 52 0} Flow 78: {3 31 0} Flow 94: {4 33 0} {33 31 0} Flow 95: {33 51 0} Flow 97: {51 9 0} Flow 110: {35 55 0} Flow 132: {6 51 0} Flow 153: {33 23 0} {23 79 0} 
Flow 171: {7 41 0} Flow 172: {9 42 0} Flow 186: {7 51 0} Flow 193: {41 9 0} Flow 234: {8 5 0} Flow 265: {9 51 0} Flow 266: {9 5 0} Flow 271: {41 7 0} Flow 319: {10 9 0} Flow 340: {11 19 0} {19 20 0} {20 9 0} Flow 347: {20 17 0} Flow 356: {17 45 0} Flow 362: {12 26 0} {26 13 0} Flow 386: {26 55 0} {55 35 0} Flow 451: {14 54 0} {54 110 0} 
Flow 454: {14 31 0} Flow 455: {14 33 0} Flow 467: {52 16 0} Flow 505: {15 30 0} {30 31 0} Flow 506: {30 13 0} Flow 526: {16 52 0} {52 34 0} Flow 539: {52 31 0} Flow 540: {52 33 0} Flow 550: {16 30 0} Flow 590: {17 51 0} Flow 600: {17 20 0} Flow 645: {18 20 0} Flow 753: {21 20 0} Flow 777: {22 20 0} Flow 791: {23 33 0} Flow 843: {24 33 0} Flow 894: {25 51 0} Flow 928: {28 30 0} Flow 934: {29 30 0} Flow 1063: {32 14 0} Flow 1136: {34 33 0} Flow 1151: {34 52 0} Flow 1188: {35 33 0} Flow 1210: {55 26 0} Flow 1236: {36 33 0} Flow 1258: {36 55 0} Flow 1286: {37 17 0} Flow 1309: {39 17 0} Flow 1326: {40 51 0} Flow 1327: {40 9 0} Flow 1406: {42 13 0} Flow 1417: {43 45 0} {45 13 0} Flow 1432: {44 45 0} Flow 1513: {46 45 0} Flow 1539: {47 33 0} Flow 1565: {48 31 0} Flow 1619: {49 14 0} Flow 1636: {50 36 0} Flow 1736: {53 13 0} Flow 1753: {54 14 0} Flow 1768: {55 51 0} Flow 1802: {55 36 0} Flow 1822: {56 42 0} Time taken running everything: 0 seconds
