networks/zoo_112_1848/zoo_112_1848-lower.sol
<?xml version = "1.0" encoding="UTF-8" standalone="yes"?>
<CPLEXSolution version="1.2">
 <header
   problemName="networks/zoo_112_1848/zoo_112_1848-lower.lp"
   solutionName="incumbent"
   solutionIndex="-1"
   objectiveValue="61"
   solutionTypeValue="3"
   solutionTypeString="primal"
   solutionStatusValue="101"
   solutionStatusString="integer optimal solution"
   solutionMethodString="mip"
   primalFeasible="1"
   dualFeasible="1"
   MIPNodes="0"
   MIPIterations="3755"
   writeLevel="3"/>
 <quality
   epInt="1.0000000000000001e-05"
   epRHS="9.9999999999999995e-07"
   maxIntInfeas="0"
   maxPrimalInfeas="0"
   maxX="1"
   maxSlack="1"/>
 <variables>
  <variable name="Y(7,8)" index="679" value="1"/>
  <variable name="Y(11,12)" index="1131" value="1"/>
  <variable name="Y(71,9)" index="7848" value="1"/>
  <variable name="Y(86,30)" index="9549" value="1"/>
  <variable name="Y(104,33)" index="11568" value="1"/>
  <variable name="Y(170,40)" index="18967" value="1"/>
  <variable name="Y(233,56)" index="26039" value="1"/>
  <variable name="Y(239,7)" index="26662" value="1"/>
  <variable name="Y(273,10)" index="30473" value="1"/>
  <variable name="Y(320,2)" index="35729" value="1"/>
  <variable name="Y(361,51)" index="40370" value="1"/>
  <variable name="Y(386,35)" index="43154" value="1"/>
  <variable name="Y(451,54)" index="50453" value="1"/>
  <variable name="Y(498,49)" index="55712" value="1"/>
  <variable name="Y(520,28)" index="58155" value="1"/>
  <variable name="Y(549,11)" index="61386" value="1"/>
  <variable name="Y(566,31)" index="63310" value="1"/>
  <variable name="Y(576,42)" index="64441" value="1"/>
  <variable name="Y(588,55)" index="65798" value="1"/>
  <variable name="Y(634,46)" index="70941" value="1"/>
  <variable name="Y(659,37)" index="73732" value="1"/>
  <variable name="Y(718,21)" index="80324" value="1"/>
  <variable name="Y(761,20)" index="85139" value="1"/>
  <variable name="Y(777,22)" index="86933" value="1"/>
  <variable name="Y(793,3)" index="88706" value="1"/>
  <variable name="Y(890,52)" index="99619" value="1"/>
  <variable name="Y(896,5)" index="100244" value="1"/>
  <variable name="Y(932,48)" index="104319" value="1"/>
  <variable name="Y(945,52)" index="105779" value="1"/>
  <variable name="Y(967,15)" index="108206" value="1"/>
  <variable name="Y(1058,31)" index="118414" value="1"/>
  <variable name="Y(1077,47)" index="120558" value="1"/>
  <variable name="Y(1103,23)" index="123446" value="1"/>
  <variable name="Y(1139,4)" index="127459" value="1"/>
  <variable name="Y(1151,16)" index="128815" value="1"/>
  <variable name="Y(1204,19)" index="134754" value="1"/>
  <variable name="Y(1210,26)" index="135433" value="1"/>
  <variable name="Y(1220,39)" index="136566" value="1"/>
  <variable name="Y(1259,27)" index="140922" value="1"/>
  <variable name="Y(1293,17)" index="144720" value="1"/>
  <variable name="Y(1311,6)" index="146725" value="1"/>
  <variable name="Y(1343,18)" index="150321" value="1"/>
  <variable name="Y(1375,53)" index="153940" value="1"/>
  <variable name="Y(1395,34)" index="156161" value="1"/>
  <variable name="Y(1431,51)" index="160210" value="1"/>
  <variable name="Y(1454,45)" index="162780" value="1"/>
  <variable name="Y(1501,43)" index="168042" value="1"/>
  <variable name="Y(1502,44)" index="168155" value="1"/>
  <variable name="Y(1523,22)" index="170485" value="1"/>
  <variable name="Y(1550,24)" index="173511" value="1"/>
  <variable name="Y(1600,36)" index="179123" value="1"/>
  <variable name="Y(1605,41)" index="179688" value="1"/>
  <variable name="Y(1619,1)" index="181216" value="1"/>
  <variable name="Y(1654,32)" index="185167" value="1"/>
  <variable name="Y(1691,25)" index="189304" value="1"/>
  <variable name="Y(1740,13)" index="194780" value="1"/>
  <variable name="Y(1757,14)" index="196685" value="1"/>
  <variable name="Y(1775,9)" index="198696" value="1"/>
  <variable name="Y(1804,38)" index="201973" value="1"/>
  <variable name="Y(1816,50)" index="203329" value="1"/>
  <variable name="Y(1834,29)" index="205324" value="1"/>
  <variable name="X(1,31,11)" index="206986" value="1"/>
  <variable name="X(1,57,1619)" index="210442" value="1"/>
  <variable name="X(2,5,71)" index="210742" value="1"/>
  <variable name="X(2,58,320)" index="212839" value="1"/>
  <variable name="X(3,31,86)" index="214453" value="1"/>
  <variable name="X(3,59,793)" index="217008" value="1"/>
  <variable name="X(4,33,104)" index="218167" value="1"/>
  <variable name="X(4,60,1139)" index="221050" value="1"/>
  <variable name="X(5,2,320)" index="222079" value="1"/>
  <variable name="X(5,8,7)" index="223614" value="1"/>
  <variable name="X(5,9,71)" index="225526" value="1"/>
  <variable name="X(5,51,239)" index="227542" value="1"/>
  <variable name="X(5,61,896)" index="230047" value="1"/>
  <variable name="X(6,51,170)" index="231169" value="1"/>
  <variable name="X(6,62,1311)" index="234158" value="1"/>
  <variable name="X(7,41,233)" index="234928" value="1"/>
  <variable name="X(7,51,1395)" index="237938" value="1"/>
  <variable name="X(7,63,239)" index="238630" value="1"/>
  <variable name="X(8,5,239)" index="240478" value="1"/>
  <variable name="X(8,64,7)" index="242094" value="1"/>
  <variable name="X(9,5,320)" index="244255" value="1"/>
  <variable name="X(9,10,273)" index="246056" value="1"/>
  <variable name="X(9,20,1343)" index="248974" value="1"/>
  <variable name="X(9,40,71)" index="249550" value="1"/>
  <variable name="X(9,41,1605)" index="252932" value="1"/>
  <variable name="X(9,42,233)" index="253408" value="1"/>
  <variable name="X(9,51,361)" index="255384" value="1"/>
  <variable name="X(9,65,1775)" index="258646" value="1"/>
  <variable name="X(10,9,320)" index="259039" value="1"/>
  <variable name="X(10,66,273)" index="260840" value="1"/>
  <variable name="X(11,19,361)" index="262776" value="1"/>
  <variable name="X(11,67,549)" index="264812" value="1"/>
  <variable name="X(12,26,386)" index="266497" value="1"/>
  <variable name="X(12,68,11)" index="267970" value="1"/>
  <variable name="X(13,26,11)" index="269818" value="1"/>
  <variable name="X(13,30,1834)" index="273489" value="1"/>
  <variable name="X(13,31,451)" index="273954" value="1"/>
  <variable name="X(13,42,576)" index="275927" value="1"/>
  <variable name="X(13,45,1804)" index="279003" value="1"/>
  <variable name="X(13,51,1431)" index="280478" value="1"/>
  <variable name="X(13,53,1375)" index="282270" value="1"/>
  <variable name="X(13,69,1740)" index="284483" value="1"/>
  <variable name="X(14,31,1619)" index="286210" value="1"/>
  <variable name="X(14,32,1654)" index="288093" value="1"/>
  <variable name="X(14,33,1077)" index="289364" value="1"/>
  <variable name="X(14,49,498)" index="290633" value="1"/>
  <variable name="X(14,54,451)" index="292434" value="1"/>
  <variable name="X(14,70,1757)" index="295588" value="1"/>
  <variable name="X(15,30,520)" index="296199" value="1"/>
  <variable name="X(15,71,967)" index="298494" value="1"/>
  <variable name="X(16,30,576)" index="299951" value="1"/>
  <variable name="X(16,52,945)" index="302168" value="1"/>
  <variable name="X(16,72,1151)" index="304222" value="1"/>
  <variable name="X(17,20,1523)" index="306442" value="1"/>
  <variable name="X(17,37,659)" index="307426" value="1"/>
  <variable name="X(17,39,1220)" index="309835" value="1"/>
  <variable name="X(17,45,634)" index="311097" value="1"/>
  <variable name="X(17,51,1311)" index="313622" value="1"/>
  <variable name="X(17,73,1293)" index="315452" value="1"/>
  <variable name="X(18,20,659)" index="316666" value="1"/>
  <variable name="X(18,74,1343)" index="319198" value="1"/>
  <variable name="X(19,11,549)" index="320252" value="1"/>
  <variable name="X(19,20,361)" index="321912" value="1"/>
  <variable name="X(19,75,1204)" index="324603" value="1"/>
  <variable name="X(20,9,361)" index="325608" value="1"/>
  <variable name="X(20,17,659)" index="327754" value="1"/>
  <variable name="X(20,18,1343)" index="330286" value="1"/>
  <variable name="X(20,19,549)" index="331340" value="1"/>
  <variable name="X(20,21,718)" index="333357" value="1"/>
  <variable name="X(20,22,1523)" index="336010" value="1"/>
  <variable name="X(20,76,761)" index="337096" value="1"/>
  <variable name="X(21,20,761)" index="338944" value="1"/>
  <variable name="X(21,77,718)" index="340749" value="1"/>
  <variable name="X(22,20,777)" index="342656" value="1"/>
  <variable name="X(22,78,1523)" index="345250" value="1"/>
  <variable name="X(23,33,793)" index="346368" value="1"/>
  <variable name="X(23,79,1103)" index="348526" value="1"/>
  <variable name="X(24,33,890)" index="350161" value="1"/>
  <variable name="X(24,80,1550)" index="352669" value="1"/>
  <variable name="X(25,51,896)" index="353863" value="1"/>
  <variable name="X(25,81,1691)" index="356506" value="1"/>
  <variable name="X(26,12,11)" index="356674" value="1"/>
  <variable name="X(26,13,1804)" index="360315" value="1"/>
  <variable name="X(26,27,1259)" index="361618" value="1"/>
  <variable name="X(26,55,386)" index="362593" value="1"/>
  <variable name="X(26,82,1210)" index="365265" value="1"/>
  <variable name="X(27,83,1259)" index="367162" value="1"/>
  <variable name="X(28,30,932)" index="368683" value="1"/>
  <variable name="X(28,84,520)" index="370119" value="1"/>
  <variable name="X(29,30,945)" index="372392" value="1"/>
  <variable name="X(29,85,1834)" index="375129" value="1"/>
  <variable name="X(30,13,576)" index="375719" value="1"/>
  <variable name="X(30,15,967)" index="377958" value="1"/>
  <variable name="X(30,16,945)" index="379784" value="1"/>
  <variable name="X(30,28,520)" index="381207" value="1"/>
  <variable name="X(30,29,1834)" index="384369" value="1"/>
  <variable name="X(30,31,932)" index="385315" value="1"/>
  <variable name="X(30,86,86)" index="386317" value="1"/>
  <variable name="X(31,1,1619)" index="389698" value="1"/>
  <variable name="X(31,3,793)" index="390720" value="1"/>
  <variable name="X(31,13,11)" index="391786" value="1"/>
  <variable name="X(31,14,451)" index="394074" value="1"/>
  <variable name="X(31,30,86)" index="395557" value="1"/>
  <variable name="X(31,33,1600)" index="398919" value="1"/>
  <variable name="X(31,48,932)" index="400099" value="1"/>
  <variable name="X(31,52,1058)" index="402073" value="1"/>
  <variable name="X(31,87,566)" index="403429" value="1"/>
  <variable name="X(32,14,1077)" index="405788" value="1"/>
  <variable name="X(32,88,1654)" index="408213" value="1"/>
  <variable name="X(33,4,1139)" index="409546" value="1"/>
  <variable name="X(33,14,1654)" index="411909" value="1"/>
  <variable name="X(33,23,1103)" index="413206" value="1"/>
  <variable name="X(33,24,1550)" index="415501" value="1"/>
  <variable name="X(33,31,793)" index="416592" value="1"/>
  <variable name="X(33,34,1395)" index="419042" value="1"/>
  <variable name="X(33,35,588)" index="420083" value="1"/>
  <variable name="X(33,36,1600)" index="422943" value="1"/>
  <variable name="X(33,47,1077)" index="424268" value="1"/>
  <variable name="X(33,51,1220)" index="426259" value="1"/>
  <variable name="X(33,52,890)" index="427777" value="1"/>
  <variable name="X(33,89,104)" index="428839" value="1"/>
  <variable name="X(34,33,1139)" index="431722" value="1"/>
  <variable name="X(34,52,1151)" index="433582" value="1"/>
  <variable name="X(34,90,1395)" index="435674" value="1"/>
  <variable name="X(35,33,1220)" index="437347" value="1"/>
  <variable name="X(35,55,588)" index="438563" value="1"/>
  <variable name="X(35,91,386)" index="440209" value="1"/>
  <variable name="X(36,33,1654)" index="443325" value="1"/>
  <variable name="X(36,50,1816)" index="445335" value="1"/>
  <variable name="X(36,55,1259)" index="446626" value="1"/>
  <variable name="X(36,92,1600)" index="448815" value="1"/>
  <variable name="X(37,17,1293)" index="450356" value="1"/>
  <variable name="X(37,93,659)" index="451570" value="1"/>
  <variable name="X(38,94,1804)" index="454563" value="1"/>
  <variable name="X(39,17,1311)" index="455918" value="1"/>
  <variable name="X(39,95,1220)" index="457675" value="1"/>
  <variable name="X(40,9,1343)" index="459646" value="1"/>
  <variable name="X(40,51,1375)" index="461526" value="1"/>
  <variable name="X(40,96,170)" index="462169" value="1"/>
  <variable name="X(41,7,1395)" index="465242" value="1"/>
  <variable name="X(41,9,233)" index="465928" value="1"/>
  <variable name="X(41,97,1605)" index="469148" value="1"/>
  <variable name="X(42,9,1605)" index="470996" value="1"/>
  <variable name="X(42,13,1834)" index="473073" value="1"/>
  <variable name="X(42,56,233)" index="473320" value="1"/>
  <variable name="X(42,98,576)" index="475511" value="1"/>
  <variable name="X(43,45,1431)" index="478214" value="1"/>
  <variable name="X(43,99,1501)" index="480132" value="1"/>
  <variable name="X(44,45,1454)" index="481933" value="1"/>
  <variable name="X(44,100,1502)" index="483829" value="1"/>
  <variable name="X(45,13,1431)" index="485606" value="1"/>
  <variable name="X(45,17,1523)" index="487546" value="1"/>
  <variable name="X(45,38,1804)" index="489675" value="1"/>
  <variable name="X(45,43,1501)" index="491220" value="1"/>
  <variable name="X(45,44,1502)" index="493069" value="1"/>
  <variable name="X(45,46,634)" index="494049" value="1"/>
  <variable name="X(45,101,1454)" index="496717" value="1"/>
  <variable name="X(46,45,1523)" index="498634" value="1"/>
  <variable name="X(46,102,634)" index="499593" value="1"/>
  <variable name="X(47,33,1550)" index="502357" value="1"/>
  <variable name="X(47,103,1077)" index="503732" value="1"/>
  <variable name="X(48,31,1600)" index="506103" value="1"/>
  <variable name="X(48,104,932)" index="507283" value="1"/>
  <variable name="X(49,14,1619)" index="509818" value="1"/>
  <variable name="X(49,105,498)" index="510545" value="1"/>
  <variable name="X(50,36,1654)" index="513549" value="1"/>
  <variable name="X(50,106,1816)" index="515559" value="1"/>
  <variable name="X(51,5,896)" index="516487" value="1"/>
  <variable name="X(51,6,1311)" index="518750" value="1"/>
  <variable name="X(51,7,239)" index="519526" value="1"/>
  <variable name="X(51,9,1775)" index="522910" value="1"/>
  <variable name="X(51,13,1375)" index="524358" value="1"/>
  <variable name="X(51,17,1220)" index="526051" value="1"/>
  <variable name="X(51,25,1691)" index="528370" value="1"/>
  <variable name="X(51,33,1395)" index="529922" value="1"/>
  <variable name="X(51,40,170)" index="530545" value="1"/>
  <variable name="X(51,55,361)" index="532584" value="1"/>
  <variable name="X(51,107,1431)" index="535502" value="1"/>
  <variable name="X(52,16,1151)" index="537070" value="1"/>
  <variable name="X(52,31,566)" index="538333" value="1"/>
  <variable name="X(52,33,588)" index="540203" value="1"/>
  <variable name="X(52,34,945)" index="542408" value="1"/>
  <variable name="X(52,108,890)" index="544201" value="1"/>
  <variable name="X(53,13,1740)" index="546899" value="1"/>
  <variable name="X(53,109,1375)" index="548382" value="1"/>
  <variable name="X(54,14,1757)" index="550612" value="1"/>
  <variable name="X(54,110,451)" index="551154" value="1"/>
  <variable name="X(55,26,1259)" index="553810" value="1"/>
  <variable name="X(55,35,386)" index="554785" value="1"/>
  <variable name="X(55,36,1816)" index="558063" value="1"/>
  <variable name="X(55,51,1775)" index="559870" value="1"/>
  <variable name="X(55,111,588)" index="560531" value="1"/>
  <variable name="X(56,42,1834)" index="563625" value="1"/>
  <variable name="X(56,112,233)" index="563872" value="1"/>
 </variables>
</CPLEXSolution>
